20
2
20076
124 225
true
0.25
12 20 45 29 50 39 37 3 46 29 24 26 17 35 47 50 18 48 50 10
28 28 36 17 17 2 42 3 15 23 49 22 43 31 8 32 27 46 43 10
-13 16 54 -6 -83 -6 99 -54 -13 -50 -68 3 46 93 41 -85 -81 -35 -73 39
0 -90 0 0 0 15 0 -48 0 0 0 21 0 0 0 0 0 0 -28 0
0 79 0 0 0 63 50 0 0 0 0 0 0 0 0 63 0 0 0
0 0 0 0 0 0 0 0 0 0 0 56 0 0 0 6 0 0
0 77 0 0 0 0 0 0 -5 0 -87 0 -57 0 0 0 50
0 -51 0 0 0 0 0 43 0 0 0 0 97 0 0 73
0 0 0 -73 0 58 0 0 0 0 0 0 52 0 0
0 0 0 97 0 0 0 0 0 0 -36 0 -11 0
0 0 43 0 0 0 0 0 0 0 0 0 0
0 -88 -96 0 0 0 0 0 0 0 0 98
0 0 0 0 0 0 0 -76 0 -41 0
0 0 0 0 0 0 -1 -25 0 28
0 0 0 55 0 0 0 0 0
0 0 -10 63 0 -59 0 0
0 0 0 0 0 0 0
0 0 0 0 0 -31
0 0 37 0 0
0 0 0 -82
0 43 0
0 0
0 0 0 0 -4 0 1 0 0 0 0 0 0 0 0 0 0 0 -73
0 0 0 -9 0 0 0 0 -95 0 0 0 -71 0 -39 -60 74 -91
0 0 0 0 0 0 0 0 0 58 0 -61 0 0 0 10 0
0 0 0 0 0 0 0 -81 0 0 0 0 -88 0 0 0
0 0 -53 75 0 0 -40 0 0 0 0 0 0 0 0
0 0 0 -53 0 0 0 0 100 0 16 0 -41 0
0 50 0 0 0 0 0 0 74 0 0 -84 0
0 0 0 0 0 0 7 -10 0 0 0 0
0 50 0 0 0 0 0 0 0 0 0
0 0 0 0 -38 0 0 0 0 0
0 0 0 -63 0 0 0 0 0
0 -59 -18 0 0 0 0 -73
0 0 0 0 0 29 0
0 -42 0 0 0 0
0 81 0 0 0
0 -84 0 0
0 0 0
0 0
0
0 0 4 0 0 0 0 0 0 -1 0 -65 0 0 -71 0 0 49
0 -99 0 0 0 -58 0 0 0 37 0 34 63 0 -13 0 0
0 0 0 0 0 0 -88 0 96 0 0 0 0 0 0 0
0 0 -42 -100 0 0 0 0 0 0 -8 0 0 0 0
0 0 0 0 0 0 0 0 0 0 15 0 0 0
0 91 0 1 0 0 0 0 0 0 -52 -17 0
0 0 0 0 0 0 19 0 22 -4 0 0
0 -87 0 0 0 0 94 0 0 0 58
0 0 82 0 0 -63 -65 -50 0 69
0 0 0 95 -7 -47 0 98 0
0 0 18 0 0 0 0 0
0 0 0 0 -27 0 33
0 -45 0 -56 65 0
0 0 0 0 0
0 0 0 0
0 0 0
0 0
0
0 0 0 0 0 0 0 0 -84 0 0 0 33 0 0 0 89
0 0 0 24 0 -35 0 0 0 0 0 0 0 0 71 0
0 0 0 0 -71 0 0 0 0 29 0 0 0 81 0
0 0 0 5 0 0 0 0 0 0 0 0 0 0
0 32 0 0 0 0 0 76 -41 0 0 74 0
0 0 0 0 -59 -94 0 0 0 0 -27 -78
0 0 -31 0 10 0 0 0 0 0 0
0 0 -92 0 0 -77 0 0 77 78
0 0 0 0 0 0 0 0 0
0 0 0 0 0 0 0 0
0 0 0 49 99 0 0
0 0 0 0 0 0
0 -34 0 12 0
0 0 -72 69
0 0 0
0 93
0
0 -72 0 31 0 -63 0 0 0 0 0 0 52 0 0 0
0 0 43 0 -31 0 0 0 0 0 0 0 19 0 0
0 0 0 -14 0 0 0 0 0 0 -93 0 0 0
0 0 54 68 0 0 0 0 0 -82 0 0 0
0 0 -52 0 -84 0 0 0 0 0 0 0
0 -34 0 0 0 21 0 0 76 0 0
0 0 0 0 0 0 0 12 0 0
0 0 0 0 0 0 0 0 0
0 -95 22 0 0 0 -24 0
0 46 70 36 0 19 70
0 0 -95 0 0 0
0 0 0 0 0
0 0 0 -64
0 0 0
0 0
0
0 6 0 0 0 -84 0 0 0 0 20 -58 0 0 0
0 0 0 -46 0 0 0 0 -83 0 0 0 0 0
0 0 33 0 -21 0 0 0 10 0 0 0 99
0 0 0 0 34 0 0 0 0 0 25 0
0 0 -99 0 59 0 0 0 27 0 21
0 0 0 0 0 0 0 0 85 14
0 -70 0 18 0 0 1 0 0
0 -18 78 0 -56 0 97 0
0 -68 0 19 0 0 0
0 0 0 0 0 0
0 0 0 -41 0
0 -59 0 -35
0 0 0
0 0
0
0 43 0 0 -99 0 0 0 0 28 0 69 58 0
0 -17 0 88 0 0 0 65 0 0 0 0 0
0 -100 0 0 0 0 0 0 -1 66 0 0
0 -71 0 0 0 0 -79 0 0 0 -48
0 0 0 0 44 0 0 0 0 0
0 0 0 0 0 0 0 0 0
0 50 0 0 0 43 0 0
0 0 86 0 0 63 0
0 0 0 0 0 -62
0 -1 -88 0 0
0 -14 0 40
0 0 0
0 0
0
0 0 -86 0 0 0 -78 0 -87 0 0 0 0
0 0 -62 0 0 10 0 0 0 0 0 -21
0 0 0 0 47 78 0 -22 0 0 0
0 0 0 0 0 0 41 0 0 0
0 0 0 0 0 0 0 0 33
0 0 0 0 0 0 0 0
0 0 0 89 0 84 0
0 0 0 0 0 0
0 0 0 0 0
0 0 0 0
0 -6 0
0 0
0
0 10 0 -31 0 0 0 0 0 0 0 0
0 0 0 0 93 84 0 0 89 -24 0
0 0 0 0 24 0 -71 0 -53 0
0 0 -60 0 0 0 0 0 0
0 0 -69 0 0 0 0 0
0 0 0 0 100 0 0
0 0 0 -63 27 0
0 0 -70 0 64
0 0 88 0
0 8 0
0 75
0
0 0 0 0 0 0 -76 0 0 -13 30
0 0 0 0 0 0 0 -92 -5 -38
0 0 0 0 -77 0 0 0 0
0 0 0 0 0 0 0 0
0 0 0 0 0 0 0
0 38 0 0 0 0
0 0 0 0 0
0 0 0 0
0 0 0
0 0
0
0 0 0 0 0 0 0 77 0 0
0 0 0 0 0 0 0 0 0
0 22 0 0 0 49 0 -71
0 0 72 0 84 -52 -43
0 0 0 20 86 0
0 0 82 0 0
0 54 37 0
0 0 0
0 -1
0
0 0 -14 0 0 -100 62 0 64
0 0 -54 0 0 0 -60 0
0 0 0 0 0 0 76
0 0 0 0 0 0
0 0 -37 0 47
0 0 0 0
0 0 0
0 0
0
0 0 0 0 0 -1 0 0
0 -92 0 0 0 70 0
0 -23 0 0 0 -68
0 0 0 0 0
0 0 0 0
0 0 0
0 0
0
0 60 0 0 0 -64 0
0 -64 0 0 0 68
0 0 0 0 0
0 0 0 -24
0 0 -28
0 -85
0
0 0 0 -26 0 0
0 0 -70 0 0
0 0 0 0
0 0 0
0 -77
0
0 0 0 80 0
0 0 0 48
0 0 51
0 0
0
0 0 0 0
0 29 92
0 0
0
0 0 0
0 -87
0
0 0
0
0
-848 83 26 -183 -184 -141 143 509 -762 157 -626 -452 -314 605 295 -7 -722 328 672 538
-50.47619047619048 3.5571428571428574 0.6499999999999999 -8.537525354969574 -7.251764705882353 -37.05769230769231 3.634813384813385 169.66666666666666 -33.68260869565217 6.119940029985008 -19.42942176870748 -18.965034965034967 -12.886456908344732 18.400921658986174 21.575797872340424 -0.179375 -33.425925925925924 6.981884057971014 14.533953488372092 53.8
